c colouring generated by benchmark framework
p edge 329 515
v 1 1
v 2 2
v 3 1
v 4 0
v 5 2
v 6 0
v 7 0
v 8 0
v 9 1
v 10 2
v 11 0
v 12 0
v 13 0
v 14 1
v 15 0
v 16 2
v 17 2
v 18 2
v 19 1
v 20 1
v 21 2
v 22 0
v 23 1
v 24 0
v 25 1
v 26 2
v 27 1
v 28 2
v 29 1
v 30 1
v 31 2
v 32 0
v 33 1
v 34 1
v 35 1
v 36 2
v 37 1
v 38 1
v 39 1
v 40 0
v 41 0
v 42 1
v 43 0
v 44 1
v 45 1
v 46 1
v 47 0
v 48 1
v 49 2
v 50 1
v 51 0
v 52 1
v 53 2
v 54 2
v 55 1
v 56 0
v 57 1
v 58 1
v 59 0
v 60 1
v 61 2
v 62 0
v 63 2
v 64 2
v 65 0
v 66 0
v 67 1
v 68 1
v 69 1
v 70 1
v 71 2
v 72 2
v 73 0
v 74 0
v 75 2
v 76 2
v 77 1
v 78 0
v 79 0
v 80 0
v 81 0
v 82 1
v 83 1
v 84 1
v 85 2
v 86 2
v 87 2
v 88 2
v 89 1
v 90 1
v 91 2
v 92 0
v 93 0
v 94 0
v 95 0
v 96 0
v 97 2
v 98 2
v 99 1
v 100 1
v 101 0
v 102 1
v 103 1
v 104 1
v 105 1
v 106 1
v 107 0
v 108 1
v 109 1
v 110 1
v 111 0
v 112 0
v 113 1
v 114 2
v 115 1
v 116 1
v 117 0
v 118 2
v 119 1
v 120 2
v 121 0
v 122 1
v 123 1
v 124 2
v 125 2
v 126 0
v 127 0
v 128 0
v 129 0
v 130 0
v 131 1
v 132 1
v 133 2
v 134 1
v 135 0
v 136 2
v 137 0
v 138 0
v 139 1
v 140 2
v 141 1
v 142 1
v 143 1
v 144 0
v 145 0
v 146 1
v 147 0
v 148 0
v 149 1
v 150 0
v 151 0
v 152 0
v 153 1
v 154 0
v 155 2
v 156 0
v 157 2
v 158 2
v 159 1
v 160 0
v 161 2
v 162 0
v 163 2
v 164 1
v 165 0
v 166 2
v 167 0
v 168 0
v 169 0
v 170 0
v 171 0
v 172 0
v 173 1
v 174 2
v 175 0
v 176 1
v 177 0
v 178 2
v 179 2
v 180 1
v 181 1
v 182 1
v 183 0
v 184 1
v 185 2
v 186 0
v 187 1
v 188 0
v 189 0
v 190 2
v 191 1
v 192 0
v 193 0
v 194 0
v 195 0
v 196 2
v 197 0
v 198 0
v 199 2
v 200 1
v 201 1
v 202 0
v 203 2
v 204 0
v 205 1
v 206 0
v 207 1
v 208 0
v 209 2
v 210 1
v 211 2
v 212 0
v 213 1
v 214 1
v 215 0
v 216 0
v 217 2
v 218 2
v 219 1
v 220 2
v 221 1
v 222 1
v 223 2
v 224 0
v 225 2
v 226 0
v 227 2
v 228 0
v 229 2
v 230 0
v 231 1
v 232 2
v 233 0
v 234 1
v 235 0
v 236 0
v 237 0
v 238 1
v 239 0
v 240 1
v 241 0
v 242 0
v 243 2
v 244 1
v 245 0
v 246 1
v 247 2
v 248 1
v 249 1
v 250 1
v 251 1
v 252 0
v 253 0
v 254 2
v 255 2
v 256 1
v 257 1
v 258 1
v 259 1
v 260 1
v 261 0
v 262 1
v 263 1
v 264 1
v 265 0
v 266 2
v 267 0
v 268 2
v 269 1
v 270 0
v 271 0
v 272 1
v 273 1
v 274 1
v 275 1
v 276 1
v 277 0
v 278 2
v 279 1
v 280 0
v 281 0
v 282 2
v 283 2
v 284 1
v 285 0
v 286 0
v 287 1
v 288 2
v 289 1
v 290 0
v 291 1
v 292 2
v 293 1
v 294 2
v 295 0
v 296 2
v 297 0
v 298 2
v 299 1
v 300 0
v 301 0
v 302 0
v 303 0
v 304 1
v 305 0
v 306 0
v 307 0
v 308 0
v 309 1
v 310 1
v 311 1
v 312 2
v 313 1
v 314 3
v 315 0
v 316 0
v 317 1
v 318 0
v 319 2
v 320 2
v 321 0
v 322 0
v 323 0
v 324 0
v 325 0
v 326 1
v 327 0
v 328 0
v 329 0
